\ LP format - for model browsing. Use MPS format to capture full model detail.
Minimize
  zeta_sub_3
Subject To
 R0: zeta_sub_3 - 1.448110837e+09 y_3_0 - 1.976351117e+09 y_3_1
   - 1.882659883e+09 y_3_2 - 1.196309033e+09 y_3_3 - 1.976591498e+09 y_3_4
   - 1.99502772e+09 y_3_5 - 1.707277456e+09 y_3_6 - 1.800786836e+09 y_3_7
   - 1.284747317e+09 y_3_8 + 2.086261889e+09 y_3_9 + 2.022653696e+09 y_3_10
   + 1.426077528e+09 y_3_11 + 1.632305135e+09 y_3_12
   + 2.067055563e+09 y_3_13 + 8.35890077e+08 y_3_14
   + 1.964165996e+09 y_3_15 - 1.987539694e+09 y_3_16
   + 1.796518083e+09 y_3_17 + 8.8235935e+08 y_3_18 + 9.69590715e+08 y_3_19
   + 2.097217463e+09 y_3_20 - 1.638488595e+09 y_3_21
   - 2.038624013e+09 y_3_22 + 1.060272636e+09 y_3_23
   + 1.316975865e+09 y_3_24 - 1.857998733e+09 y_3_25
   + 8.18430851e+08 y_3_26 - 1.806858113e+09 y_3_27
   + 1.842745833e+09 y_3_28 - 1.380530174e+09 y_3_29
   + 1.357848825e+09 y_3_30 + 1.845944113e+09 y_3_31
   - 1.555906717e+09 y_3_32 + 1.324862942e+09 y_3_33
   + 1.758581634e+09 y_3_34 + 1.014949865e+09 y_3_35
   - 1.882633651e+09 y_3_36 - 1.59306823e+09 y_3_37
   + 1.657964618e+09 y_3_38 - 1.328442856e+09 y_3_39
   + 5.56656682e+08 y_3_40 + 7.077806e+08 y_3_41 - 1.511806688e+09 y_3_42
   - 2.001981029e+09 y_3_43 + 9.84806423e+08 y_3_44 + 7.2283271e+08 y_3_45
   - 1.023580155e+09 y_3_46 + 6.9706579e+08 y_3_47 + 8.40888106e+08 y_3_48
   - 1.14057029e+09 y_3_49 + 1.085284842e+09 y_3_50 + 6.16776361e+08 y_3_51
   + 7.51428392e+08 y_3_52 + 5.71373001e+08 y_3_53 + 2.006007548e+09 y_3_54
   + 9.99797213e+08 y_3_55 - 1.344070201e+09 y_3_56
   - 1.574722498e+09 y_3_57 + 2.11273781e+09 y_3_58
   + 1.144651513e+09 y_3_59 - 1.963318285e+09 y_3_60
   + 2.060448704e+09 y_3_61 - 1.912530106e+09 y_3_62
   + 5.31943163e+08 y_3_63 + 1.89553538e+09 y_3_64 + 2.094488617e+09 y_3_65
   + 7.40834679e+08 y_3_66 - 2.041597364e+09 y_3_67
   - 1.067267823e+09 y_3_68 + 1.348320639e+09 y_3_69
   + 1.153971342e+09 y_3_70 >= 0
 R1: y_3_29 + y_3_30 + y_3_31 + y_3_32 + y_3_33 + y_3_34 + y_3_35 + y_3_36
   + y_3_37 + y_3_38 = 1
 R2: y_3_53 + y_3_54 + y_3_55 + y_3_56 + y_3_57 + y_3_58 + y_3_59 + y_3_60
   = 0
 R3: - y_3_29 + y_3_39 + y_3_40 + y_3_41 + y_3_42 + y_3_43 + y_3_44
   + y_3_45 + y_3_46 + y_3_47 = 0
 R4: y_3_6 + y_3_7 + y_3_8 + y_3_9 + y_3_10 + y_3_11 + y_3_12 + y_3_13
   + y_3_14 - y_3_36 = 0
 R5: - y_3_6 + y_3_15 + y_3_16 + y_3_17 + y_3_18 + y_3_19 + y_3_20 - y_3_34
   - y_3_42 - y_3_59 = 0
 R6: - y_3_12 - y_3_30 - y_3_40 + y_3_48 + y_3_49 + y_3_50 + y_3_51
   + y_3_52 - y_3_56 = 0
 R7: y_3_0 + y_3_1 + y_3_2 + y_3_3 + y_3_4 - y_3_10 - y_3_38 - y_3_46
   - y_3_53 = 0
 R8: - y_3_33 - y_3_43 + y_3_63 + y_3_64 + y_3_65 = 0
 R9: - y_3_1 - y_3_17 - y_3_52 - y_3_57 + y_3_66 + y_3_67 + y_3_68 + y_3_69
   = 0
 R10: - y_3_4 - y_3_9 - y_3_15 + y_3_21 + y_3_22 + y_3_23 - y_3_37 - y_3_45
   - y_3_50 = 0
 R11: - y_3_3 - y_3_7 - y_3_21 + y_3_26 + y_3_27 - y_3_35 - y_3_48 - y_3_63
   - y_3_68 = 0
 R12: - y_3_13 - y_3_32 - y_3_39 - y_3_51 + y_3_61 + y_3_62 - y_3_65
   - y_3_66 = 0
 R13: - y_3_11 + y_3_24 + y_3_25 - y_3_54 = 0
 R14: - y_3_20 - y_3_22 - y_3_44 - y_3_60 - y_3_61 - y_3_64 - y_3_69
   + y_3_70 = 0
 R15: - y_3_2 - y_3_14 - y_3_18 - y_3_25 + y_3_28 - y_3_31 - y_3_41
   - y_3_58 - y_3_67 = 0
 R16: - y_3_0 + y_3_5 - y_3_16 - y_3_26 - y_3_47 - y_3_55 - y_3_62 = 0
 R17: - y_3_5 - y_3_8 - y_3_19 - y_3_23 - y_3_24 - y_3_27 - y_3_28 - y_3_49
   - y_3_70 = -1
Bounds
 y_3_0 <= 1
 y_3_1 <= 1
 y_3_2 <= 1
 y_3_3 <= 1
 y_3_4 <= 1
 y_3_5 <= 1
 y_3_6 <= 1
 y_3_7 <= 1
 y_3_8 <= 1
 y_3_9 <= 1
 y_3_10 <= 1
 y_3_11 <= 1
 y_3_12 <= 1
 y_3_13 <= 1
 y_3_14 <= 1
 y_3_15 <= 1
 y_3_16 <= 1
 y_3_17 <= 1
 y_3_18 <= 1
 y_3_19 <= 1
 y_3_20 <= 1
 y_3_21 <= 1
 y_3_22 <= 1
 y_3_23 <= 1
 y_3_24 <= 1
 y_3_25 <= 1
 y_3_26 <= 1
 y_3_27 <= 1
 y_3_28 <= 1
 y_3_29 <= 1
 y_3_30 <= 1
 y_3_31 <= 1
 y_3_32 <= 1
 y_3_33 <= 1
 y_3_34 <= 1
 y_3_35 <= 1
 y_3_36 <= 1
 y_3_37 <= 1
 y_3_38 <= 1
 y_3_39 <= 1
 y_3_40 <= 1
 y_3_41 <= 1
 y_3_42 <= 1
 y_3_43 <= 1
 y_3_44 <= 1
 y_3_45 <= 1
 y_3_46 <= 1
 y_3_47 <= 1
 y_3_48 <= 1
 y_3_49 <= 1
 y_3_50 <= 1
 y_3_51 <= 1
 y_3_52 <= 1
 y_3_53 <= 1
 y_3_54 <= 1
 y_3_55 <= 1
 y_3_56 <= 1
 y_3_57 <= 1
 y_3_58 <= 1
 y_3_59 <= 1
 y_3_60 <= 1
 y_3_61 <= 1
 y_3_62 <= 1
 y_3_63 <= 1
 y_3_64 <= 1
 y_3_65 <= 1
 y_3_66 <= 1
 y_3_67 <= 1
 y_3_68 <= 1
 y_3_69 <= 1
 y_3_70 <= 1
End
